c File: data_files/evolved_graphs/g8032.col
c
c Auto generated graph
c
p edge 100 452
e 1 43
e 1 58
e 1 59
e 1 66
e 1 72
e 1 82
e 1 84
e 1 96
e 1 97
e 2 4
e 2 43
e 2 45
e 2 70
e 2 82
e 2 95
e 2 96
e 2 100
e 3 5
e 3 30
e 3 53
e 3 55
e 3 59
e 3 62
e 3 63
e 3 64
e 3 76
e 3 98
e 3 100
e 4 7
e 4 10
e 4 25
e 4 65
e 4 68
e 4 71
e 4 91
e 4 97
e 5 11
e 5 25
e 5 41
e 5 52
e 5 66
e 5 69
e 5 81
e 5 82
e 5 94
e 6 18
e 6 36
e 6 60
e 6 85
e 6 88
e 6 92
e 6 98
e 6 100
e 7 16
e 7 25
e 7 60
e 7 63
e 7 80
e 7 81
e 7 83
e 7 89
e 7 99
e 8 27
e 8 37
e 8 67
e 8 79
e 8 84
e 8 88
e 8 89
e 8 100
e 9 15
e 9 38
e 9 53
e 9 60
e 9 68
e 9 76
e 9 88
e 9 89
e 9 91
e 10 40
e 10 47
e 10 65
e 10 76
e 10 82
e 10 93
e 11 18
e 11 21
e 11 34
e 11 35
e 11 37
e 11 46
e 12 44
e 12 48
e 12 58
e 12 73
e 12 77
e 12 83
e 12 84
e 12 91
e 12 98
e 13 39
e 13 41
e 13 61
e 13 63
e 13 74
e 13 88
e 13 99
e 14 27
e 14 30
e 14 43
e 14 52
e 14 57
e 14 60
e 14 64
e 14 67
e 14 83
e 14 91
e 15 25
e 15 26
e 15 34
e 15 48
e 15 66
e 15 71
e 15 87
e 15 93
e 15 96
e 16 19
e 16 26
e 16 47
e 16 72
e 16 76
e 16 86
e 16 87
e 16 94
e 17 19
e 17 32
e 17 49
e 17 52
e 17 62
e 17 70
e 17 83
e 17 87
e 17 89
e 17 97
e 18 26
e 18 39
e 18 45
e 18 61
e 18 62
e 18 65
e 18 72
e 18 75
e 18 92
e 19 54
e 19 59
e 19 82
e 19 86
e 19 89
e 19 91
e 19 92
e 19 95
e 20 27
e 20 31
e 20 48
e 20 49
e 20 76
e 20 99
e 21 36
e 21 37
e 21 42
e 21 49
e 21 51
e 21 67
e 21 68
e 21 93
e 21 94
e 22 25
e 22 29
e 22 36
e 22 44
e 22 47
e 22 61
e 22 70
e 22 91
e 23 25
e 23 32
e 23 36
e 23 51
e 23 54
e 23 56
e 23 66
e 24 25
e 24 38
e 24 46
e 24 50
e 24 51
e 24 52
e 24 55
e 24 60
e 24 61
e 24 65
e 25 42
e 25 56
e 25 96
e 26 32
e 26 40
e 26 45
e 26 46
e 26 52
e 26 61
e 26 71
e 27 43
e 27 45
e 27 46
e 27 64
e 27 69
e 27 79
e 28 39
e 28 44
e 28 46
e 28 63
e 28 68
e 28 69
e 28 82
e 28 98
e 28 99
e 28 100
e 29 40
e 29 79
e 29 83
e 29 94
e 29 96
e 29 99
e 30 47
e 30 54
e 30 99
e 31 33
e 32 34
e 32 79
e 34 50
e 34 64
e 34 95
e 35 38
e 35 43
e 35 44
e 35 66
e 35 78
e 35 81
e 36 45
e 36 63
e 36 66
e 36 67
e 36 84
e 36 95
e 37 38
e 37 41
e 37 46
e 37 57
e 37 59
e 37 83
e 38 44
e 38 45
e 38 59
e 38 65
e 38 74
e 38 83
e 39 51
e 39 62
e 39 64
e 39 83
e 39 85
e 39 94
e 39 95
e 40 46
e 40 81
e 40 83
e 40 90
e 40 95
e 41 60
e 41 61
e 41 63
e 41 66
e 41 68
e 42 64
e 42 68
e 42 70
e 42 77
e 42 86
e 42 88
e 43 48
e 43 59
e 43 94
e 44 64
e 44 73
e 44 80
e 44 90
e 45 55
e 45 77
e 46 63
e 46 70
e 46 74
e 46 85
e 47 54
e 47 69
e 47 70
e 47 72
e 47 73
e 47 76
e 47 93
e 48 55
e 48 62
e 48 66
e 48 72
e 48 75
e 48 88
e 48 93
e 49 50
e 49 61
e 49 71
e 49 72
e 49 74
e 49 80
e 49 85
e 50 60
e 50 70
e 50 72
e 50 74
e 50 75
e 50 82
e 50 86
e 51 58
e 51 73
e 51 76
e 51 79
e 51 99
e 52 56
e 52 64
e 52 80
e 52 84
e 52 87
e 52 88
e 53 56
e 53 57
e 53 62
e 53 70
e 53 71
e 53 81
e 53 92
e 54 60
e 54 62
e 54 65
e 54 71
e 54 77
e 54 85
e 55 57
e 55 61
e 55 78
e 55 82
e 55 85
e 55 99
e 56 57
e 56 77
e 56 80
e 56 92
e 56 94
e 56 97
e 56 100
e 57 75
e 57 81
e 57 85
e 57 87
e 57 98
e 58 61
e 58 65
e 58 77
e 58 81
e 58 87
e 58 90
e 58 92
e 58 99
e 58 100
e 59 69
e 59 72
e 59 85
e 59 91
e 59 97
e 60 88
e 60 90
e 60 91
e 61 89
e 61 100
e 62 72
e 62 78
e 62 87
e 63 75
e 63 76
e 63 86
e 64 86
e 65 68
e 65 94
e 65 96
e 66 94
e 66 95
e 66 97
e 67 72
e 67 82
e 67 91
e 67 96
e 68 89
e 68 94
e 69 72
e 69 74
e 69 78
e 69 89
e 69 93
e 70 81
e 71 86
e 73 76
e 73 90
e 74 77
e 74 80
e 74 90
e 74 98
e 75 89
e 76 96
e 77 78
e 78 84
e 78 95
e 78 97
e 79 80
e 79 84
e 79 93
e 79 96
e 79 98
e 80 93
e 80 95
e 81 85
e 81 87
e 82 85
e 82 92
e 82 93
e 84 95
e 84 98
e 85 88
e 86 95
e 87 93
e 87 100
e 88 100
e 90 96
e 91 97
e 92 93
e 98 100
